1	4	1	1	5	10	0	0	0	0	0	0
800	1	0	0	0	0	0	0	0	0	0	0
100	1	0	80.75	0.39	1	0	0	0	0	0	0
100	1	0	80.75	0.39	1	0	0	0	0	0	0
100	1	0	80.75	0.39	1	0	0	0	0	0	0
100     1       0       80.75   0.39    1       0       0       0       0       0       0
50	150	0	0	0	0	240	0	0	99999	0	0
50	75	0	0	0	0	240	0	0	99999	0	0
50	75	0	0	0	0	240	0	0	0	0	0
57	82	0	0	0	0	240	0	0	0	0	0
31	84	0	0	0	0	240	0	0	0	0	0
77	30	0	0	0	0	240	0	0	0	0	0
40      50      0       0       0       0       240     0       0       0       0       0
37	31	14	12	2	175	293	10	0	0	0	0
20	82	10	2	8	139	293	10	0	0	0	0
67	85	20	16	4	162	286	10	0	0	0	0
92	30	10	3	7	175	275	10	0	0	0	0
6	68	30	3	27	140	252	10	0	0	0	0
35	40	16	14	2	113	210	10	0	0	0	0
61	52	3	3	0	123	202	10	0	0	0	0
63	23	2	1	1	137	295	10	0	0	0	0
47	47	13	13	0	109	251	10	0	0	0	0
21	24	28	25	3	226	298	10	0	0	0	0
